p cnf 269 618
-1 218 -222 -229 -234 -235 -238 -241 -244 -256 -257 -258 -259 -260 -261 -262 -265 -269 0 
-2 -3 5 6 30 76 93 127 219 -222 -229 -234 -235 -238 -241 -244 -256 -257 -258 -259 -260 -261 -262 -265 -269 0 
-4 27 -5 3 6 30 76 93 127 219 -222 -229 -234 -235 -238 -241 -244 -256 -257 -258 -259 -260 -261 -262 -265 -269 0 
-4 27 -6 3 5 30 76 93 127 219 -222 -229 -234 -235 -238 -241 -244 -256 -257 -258 -259 -260 -261 -262 -265 -269 0 
-3 5 6 30 76 93 127 218 -222 -229 -234 -235 -238 -241 -244 -256 -257 -258 -259 -260 -261 -262 -265 -269 0 
-5 3 6 30 76 93 127 218 -222 -229 -234 -235 -238 -241 -244 -256 -257 -258 -259 -260 -261 -262 -265 -269 0 
-6 3 5 30 76 93 127 218 -222 -229 -234 -235 -238 -241 -244 -256 -257 -258 -259 -260 -261 -262 -265 -269 0 
-4 27 -3 5 6 30 76 93 127 219 -222 -229 -234 -235 -238 -241 -244 -256 -257 -258 -259 -260 -261 -262 -265 -269 0 
-7 219 -222 -229 -234 -235 -238 -241 -244 -256 -257 -258 -259 -260 -261 -262 -265 -269 0 
-8 10 21 38 39 51 61 68 88 100 109 111 193 210 213 -9 149 220 0 
-10 8 21 38 39 51 61 68 88 100 109 111 193 210 213 -11 40 46 54 67 75 79 83 91 118 129 137 143 144 156 190 208 216 -12 43 47 64 87 105 141 151 152 158 182 -13 23 53 62 78 81 96 112 115 130 134 150 153 154 155 184 206 212 -14 101 162 218 -222 -229 -234 -235 -238 -241 -244 -256 -257 -258 -259 -260 -261 -262 -265 -269 0 
-15 197 -16 220 0 
-17 221 0 
-18 -19 95 168 176 189 -20 164 220 0 
-21 8 10 38 39 51 61 68 88 100 109 111 193 210 213 218 -222 -229 -234 -235 -238 -241 -244 -256 -257 -258 -259 -260 -261 -262 -265 -269 0 
-22 218 -222 -229 -234 -235 -238 -241 -244 -256 -257 -258 -259 -260 -261 -262 -265 -269 0 
-23 13 53 62 78 81 96 112 115 130 134 150 153 154 155 184 206 212 218 -222 -229 -234 -235 -238 -241 -244 -256 -257 -258 -259 -260 -261 -262 -265 -269 0 
-24 222 -229 -234 -235 -238 -241 -244 -256 -257 -258 -259 -260 -261 -262 -265 -269 0 
-25 94 99 110 142 223 -222 -229 -234 -235 -238 -241 -244 -256 -257 -258 -259 -260 -261 -262 -265 -269 0 
-26 223 -222 -229 -234 -235 -238 -241 -244 -256 -257 -258 -259 -260 -261 -262 -265 -269 0 
-24 -27 4 219 -222 -229 -234 -235 -238 -241 -244 -256 -257 -258 -259 -260 -261 -262 -265 -269 0 
-27 4 218 -222 -229 -234 -235 -238 -241 -244 -256 -257 -258 -259 -260 -261 -262 -265 -269 0 
-3 5 6 30 76 93 127 219 -222 -229 -234 -235 -238 -241 -244 -256 -257 -258 -259 -260 -261 -262 -265 -269 0 
-6 3 5 30 76 93 127 219 -222 -229 -234 -235 -238 -241 -244 -256 -257 -258 -259 -260 -261 -262 -265 -269 0 
-7 -5 3 6 30 76 93 127 219 -222 -229 -234 -235 -238 -241 -244 -256 -257 -258 -259 -260 -261 -262 -265 -269 0 
-4 27 219 -222 -229 -234 -235 -238 -241 -244 -256 -257 -258 -259 -260 -261 -262 -265 -269 0 
-28 -1 218 -222 -229 -234 -235 -238 -241 -244 -256 -257 -258 -259 -260 -261 -262 -265 -269 0 
-27 4 -1 218 -222 -229 -234 -235 -238 -241 -244 -256 -257 -258 -259 -260 -261 -262 -265 -269 0 
-29 218 -222 -229 -234 -235 -238 -241 -244 -256 -257 -258 -259 -260 -261 -262 -265 -269 0 
-30 3 5 6 76 93 127 218 -222 -229 -234 -235 -238 -241 -244 -256 -257 -258 -259 -260 -261 -262 -265 -269 0 
-7 -24 -31 167 218 -222 -229 -234 -235 -238 -241 -244 -256 -257 -258 -259 -260 -261 -262 -265 -269 0 
-1 -31 167 218 -222 -229 -234 -235 -238 -241 -244 -256 -257 -258 -259 -260 -261 -262 -265 -269 0 
-32 219 -222 -229 -234 -235 -238 -241 -244 -256 -257 -258 -259 -260 -261 -262 -265 -269 0 
-24 -31 167 219 -222 -229 -234 -235 -238 -241 -244 -256 -257 -258 -259 -260 -261 -262 -265 -269 0 
-33 218 -222 -229 -234 -235 -238 -241 -244 -256 -257 -258 -259 -260 -261 -262 -265 -269 0 
-34 -35 102 222 -229 -234 -235 -238 -241 -244 -256 -257 -258 -259 -260 -261 -262 -265 -269 0 
-36 86 89 135 177 218 -222 -229 -234 -235 -238 -241 -244 -256 -257 -258 -259 -260 -261 -262 -265 -269 0 
-25 94 99 110 142 221 0 
-35 102 220 0 
-37 220 0 
-38 8 10 21 39 51 61 68 88 100 109 111 193 210 213 220 0 
-39 8 10 21 38 51 61 68 88 100 109 111 193 210 213 220 0 
-40 11 46 54 67 75 79 83 91 118 129 137 143 144 156 190 208 216 220 0 
-41 220 0 
-42 45 48 74 108 148 179 185 217 220 0 
-43 12 47 64 87 105 141 151 152 158 182 220 0 
-44 220 0 
-45 42 48 74 108 148 179 185 217 220 0 
-21 8 10 38 39 51 61 68 88 100 109 111 193 210 213 224 -222 -229 -234 -235 -238 -241 -244 -256 -257 -258 -259 -260 -261 -262 -265 -269 0 
-46 11 40 54 67 75 79 83 91 118 129 137 143 144 156 190 208 216 220 0 
-47 12 43 64 87 105 141 151 152 158 182 220 0 
-48 42 45 74 108 148 179 185 217 220 0 
-49 56 220 0 
-4 27 -44 -50 220 0 
-51 8 10 21 38 39 61 68 88 100 109 111 193 210 213 220 0 
-52 225 -222 -229 -234 -235 -238 -241 -244 -256 -257 -258 -259 -260 -261 -262 -265 -269 0 
-53 13 23 62 78 81 96 112 115 130 134 150 153 154 155 184 206 212 -54 11 40 46 67 75 79 83 91 118 129 137 143 144 156 190 208 216 226 0 
-20 164 -55 106 175 186 -18 220 0 
-56 49 -18 -55 106 175 186 -35 102 220 0 
-18 -4 27 -44 -20 164 220 0 
-7 -57 -58 220 0 
-59 227 -222 -229 -234 -235 -238 -241 -244 -256 -257 -258 -259 -260 -261 -262 -265 -269 0 
-60 220 0 
-61 8 10 21 38 39 51 68 88 100 109 111 193 210 213 -62 13 23 53 78 81 96 112 115 130 134 150 153 154 155 184 206 212 -63 -64 12 43 47 87 105 141 151 152 158 182 228 -222 -229 -234 -235 -238 -241 -244 -256 -257 -258 -259 -260 -261 -262 -265 -269 0 
-65 139 -37 221 0 
-66 225 -222 -229 -234 -235 -238 -241 -244 -256 -257 -258 -259 -260 -261 -262 -265 -269 0 
-7 -60 -4 27 220 0 
-67 11 40 46 54 75 79 83 91 118 129 137 143 144 156 190 208 216 229 -222 -234 -235 -238 -241 -244 -256 -257 -258 -259 -260 -261 -262 -265 -269 0 
-68 8 10 21 38 39 51 61 88 100 109 111 193 210 213 220 0 
-69 220 0 
-9 149 220 0 
-70 -71 230 -222 -229 -234 -235 -238 -241 -244 -256 -257 -258 -259 -260 -261 -262 -265 -269 0 
-58 -65 139 220 0 
-72 -73 84 97 114 183 191 225 -222 -229 -234 -235 -238 -241 -244 -256 -257 -258 -259 -260 -261 -262 -265 -269 0 
-74 42 45 48 108 148 179 185 217 220 0 
-75 11 40 46 54 67 79 83 91 118 129 137 143 144 156 190 208 216 229 -222 -234 -235 -238 -241 -244 -256 -257 -258 -259 -260 -261 -262 -265 -269 0 
-4 27 231 -222 -229 -234 -235 -238 -241 -244 -256 -257 -258 -259 -260 -261 -262 -265 -269 0 
-76 3 5 6 30 93 127 232 0 
-4 27 -76 3 5 6 30 93 127 233 -222 -229 -234 -235 -238 -241 -244 -256 -257 -258 -259 -260 -261 -262 -265 -269 0 
-25 94 99 110 142 -77 163 223 -222 -229 -234 -235 -238 -241 -244 -256 -257 -258 -259 -260 -261 -262 -265 -269 0 
-78 13 23 53 62 81 96 112 115 130 134 150 153 154 155 184 206 212 218 -222 -229 -234 -235 -238 -241 -244 -256 -257 -258 -259 -260 -261 -262 -265 -269 0 
-79 11 40 46 54 67 75 83 91 118 129 137 143 144 156 190 208 216 234 -222 -229 -235 -238 -241 -244 -256 -257 -258 -259 -260 -261 -262 -265 -269 0 
-80 218 -222 -229 -234 -235 -238 -241 -244 -256 -257 -258 -259 -260 -261 -262 -265 -269 0 
-81 13 23 53 62 78 96 112 115 130 134 150 153 154 155 184 206 212 -82 235 -222 -229 -234 -238 -241 -244 -256 -257 -258 -259 -260 -261 -262 -265 -269 0 
-83 11 40 46 54 67 75 79 91 118 129 137 143 144 156 190 208 216 235 -222 -229 -234 -238 -241 -244 -256 -257 -258 -259 -260 -261 -262 -265 -269 0 
-84 73 97 114 183 191 236 -222 -229 -234 -235 -238 -241 -244 -256 -257 -258 -259 -260 -261 -262 -265 -269 0 
-85 220 0 
-86 36 89 135 177 234 -222 -229 -235 -238 -241 -244 -256 -257 -258 -259 -260 -261 -262 -265 -269 0 
-59 -87 12 43 47 64 105 141 151 152 158 182 -88 8 10 21 38 39 51 61 68 100 109 111 193 210 213 218 -222 -229 -234 -235 -238 -241 -244 -256 -257 -258 -259 -260 -261 -262 -265 -269 0 
-4 27 -87 12 43 47 64 105 141 151 152 158 182 220 0 
-89 36 86 135 177 237 -222 -229 -234 -235 -238 -241 -244 -256 -257 -258 -259 -260 -261 -262 -265 -269 0 
-90 -91 11 40 46 54 67 75 79 83 118 129 137 143 144 156 190 208 216 223 -222 -229 -234 -235 -238 -241 -244 -256 -257 -258 -259 -260 -261 -262 -265 -269 0 
-92 238 -222 -229 -234 -235 -241 -244 -256 -257 -258 -259 -260 -261 -262 -265 -269 0 
-93 3 5 6 30 76 127 -25 94 99 110 142 223 -222 -229 -234 -235 -238 -241 -244 -256 -257 -258 -259 -260 -261 -262 -265 -269 0 
-94 25 99 110 142 225 -222 -229 -234 -235 -238 -241 -244 -256 -257 -258 -259 -260 -261 -262 -265 -269 0 
-95 19 168 176 189 228 -222 -229 -234 -235 -238 -241 -244 -256 -257 -258 -259 -260 -261 -262 -265 -269 0 
-96 13 23 53 62 78 81 112 115 130 134 150 153 154 155 184 206 212 229 -222 -234 -235 -238 -241 -244 -256 -257 -258 -259 -260 -261 -262 -265 -269 0 
-97 73 84 114 183 191 236 -222 -229 -234 -235 -238 -241 -244 -256 -257 -258 -259 -260 -261 -262 -265 -269 0 
-65 139 -49 56 -48 42 45 74 108 148 179 185 217 218 -222 -229 -234 -235 -238 -241 -244 -256 -257 -258 -259 -260 -261 -262 -265 -269 0 
-98 188 224 -222 -229 -234 -235 -238 -241 -244 -256 -257 -258 -259 -260 -261 -262 -265 -269 0 
-43 12 47 64 87 105 141 151 152 158 182 218 -222 -229 -234 -235 -238 -241 -244 -256 -257 -258 -259 -260 -261 -262 -265 -269 0 
-94 25 99 110 142 239 -222 -229 -234 -235 -238 -241 -244 -256 -257 -258 -259 -260 -261 -262 -265 -269 0 
-55 106 175 186 -99 25 94 110 142 220 0 
-100 8 10 21 38 39 51 61 68 88 109 111 193 210 213 218 -222 -229 -234 -235 -238 -241 -244 -256 -257 -258 -259 -260 -261 -262 -265 -269 0 
-101 14 162 218 -222 -229 -234 -235 -238 -241 -244 -256 -257 -258 -259 -260 -261 -262 -265 -269 0 
-65 139 -102 35 218 -222 -229 -234 -235 -238 -241 -244 -256 -257 -258 -259 -260 -261 -262 -265 -269 0 
-103 -4 27 220 0 
-103 -61 8 10 21 38 39 51 68 88 100 109 111 193 210 213 -104 218 -222 -229 -234 -235 -238 -241 -244 -256 -257 -258 -259 -260 -261 -262 -265 -269 0 
-105 12 43 47 64 87 141 151 152 158 182 220 0 
-56 49 220 0 
-102 35 220 0 
-106 55 175 186 224 -222 -229 -234 -235 -238 -241 -244 -256 -257 -258 -259 -260 -261 -262 -265 -269 0 
-107 120 124 240 -222 -229 -234 -235 -238 -241 -244 -256 -257 -258 -259 -260 -261 -262 -265 -269 0 
-104 220 0 
-43 12 47 64 87 105 141 151 152 158 182 -108 42 45 48 74 148 179 185 217 241 -222 -229 -234 -235 -238 -244 -256 -257 -258 -259 -260 -261 -262 -265 -269 0 
-106 55 175 186 240 -222 -229 -234 -235 -238 -241 -244 -256 -257 -258 -259 -260 -261 -262 -265 -269 0 
-94 25 99 110 142 227 -222 -229 -234 -235 -238 -241 -244 -256 -257 -258 -259 -260 -261 -262 -265 -269 0 
-23 13 53 62 78 81 96 112 115 130 134 150 153 154 155 184 206 212 -109 8 10 21 38 39 51 61 68 88 100 111 193 210 213 242 -222 -229 -234 -235 -238 -241 -244 -256 -257 -258 -259 -260 -261 -262 -265 -269 0 
-40 11 46 54 67 75 79 83 91 118 129 137 143 144 156 190 208 216 -23 13 53 62 78 81 96 112 115 130 134 150 153 154 155 184 206 212 -110 25 94 99 142 -111 8 10 21 38 39 51 61 68 88 100 109 193 210 213 242 -222 -229 -234 -235 -238 -241 -244 -256 -257 -258 -259 -260 -261 -262 -265 -269 0 
-112 13 23 53 62 78 81 96 115 130 134 150 153 154 155 184 206 212 -94 25 99 110 142 -113 131 -114 73 84 97 183 191 236 -222 -229 -234 -235 -238 -241 -244 -256 -257 -258 -259 -260 -261 -262 -265 -269 0 
-40 11 46 54 67 75 79 83 91 118 129 137 143 144 156 190 208 216 -20 164 220 0 
-115 13 23 53 62 78 81 96 112 130 134 150 153 154 155 184 206 212 -99 25 94 110 142 243 -222 -229 -234 -235 -238 -241 -244 -256 -257 -258 -259 -260 -261 -262 -265 -269 0 
-94 25 99 110 142 -87 12 43 47 64 105 141 151 152 158 182 227 -222 -229 -234 -235 -238 -241 -244 -256 -257 -258 -259 -260 -261 -262 -265 -269 0 
-107 120 124 224 -222 -229 -234 -235 -238 -241 -244 -256 -257 -258 -259 -260 -261 -262 -265 -269 0 
-4 27 -116 218 -222 -229 -234 -235 -238 -241 -244 -256 -257 -258 -259 -260 -261 -262 -265 -269 0 
-39 8 10 21 38 51 61 68 88 100 109 111 193 210 213 218 -222 -229 -234 -235 -238 -241 -244 -256 -257 -258 -259 -260 -261 -262 -265 -269 0 
-117 192 218 -222 -229 -234 -235 -238 -241 -244 -256 -257 -258 -259 -260 -261 -262 -265 -269 0 
-43 12 47 64 87 105 141 151 152 158 182 -21 8 10 38 39 51 61 68 88 100 109 111 193 210 213 218 -222 -229 -234 -235 -238 -241 -244 -256 -257 -258 -259 -260 -261 -262 -265 -269 0 
-118 11 40 46 54 67 75 79 83 91 129 137 143 144 156 190 208 216 -64 12 43 47 87 105 141 151 152 158 182 -63 -62 13 23 53 78 81 96 112 115 130 134 150 153 154 155 184 206 212 -25 94 99 110 142 228 -222 -229 -234 -235 -238 -241 -244 -256 -257 -258 -259 -260 -261 -262 -265 -269 0 
-40 11 46 54 67 75 79 83 91 118 129 137 143 144 156 190 208 216 -18 220 0 
-94 25 99 110 142 -119 239 -222 -229 -234 -235 -238 -241 -244 -256 -257 -258 -259 -260 -261 -262 -265 -269 0 
-120 107 124 240 -222 -229 -234 -235 -238 -241 -244 -256 -257 -258 -259 -260 -261 -262 -265 -269 0 
-112 13 23 53 62 78 81 96 115 130 134 150 153 154 155 184 206 212 -97 73 84 114 183 191 236 -222 -229 -234 -235 -238 -241 -244 -256 -257 -258 -259 -260 -261 -262 -265 -269 0 
-18 -55 106 175 186 -20 164 220 0 
-120 107 124 224 -222 -229 -234 -235 -238 -241 -244 -256 -257 -258 -259 -260 -261 -262 -265 -269 0 
-121 -122 244 -222 -229 -234 -235 -238 -241 -256 -257 -258 -259 -260 -261 -262 -265 -269 0 
-27 4 245 0 
-7 -24 246 0 
-4 27 247 -222 -229 -234 -235 -238 -241 -244 -256 -257 -258 -259 -260 -261 -262 -265 -269 0 
-4 27 248 -222 -229 -234 -235 -238 -241 -244 -256 -257 -258 -259 -260 -261 -262 -265 -269 0 
-7 249 -222 -229 -234 -235 -238 -241 -244 -256 -257 -258 -259 -260 -261 -262 -265 -269 0 
-7 250 -222 -229 -234 -235 -238 -241 -244 -256 -257 -258 -259 -260 -261 -262 -265 -269 0 
-7 -24 218 -222 -229 -234 -235 -238 -241 -244 -256 -257 -258 -259 -260 -261 -262 -265 -269 0 
-4 27 251 -222 -229 -234 -235 -238 -241 -244 -256 -257 -258 -259 -260 -261 -262 -265 -269 0 
-24 219 -222 -229 -234 -235 -238 -241 -244 -256 -257 -258 -259 -260 -261 -262 -265 -269 0 
-123 125 133 240 -222 -229 -234 -235 -238 -241 -244 -256 -257 -258 -259 -260 -261 -262 -265 -269 0 
-20 164 -124 107 120 240 -222 -229 -234 -235 -238 -241 -244 -256 -257 -258 -259 -260 -261 -262 -265 -269 0 
-49 56 -20 164 220 0 
-125 123 133 224 -222 -229 -234 -235 -238 -241 -244 -256 -257 -258 -259 -260 -261 -262 -265 -269 0 
-126 170 -27 4 218 -222 -229 -234 -235 -238 -241 -244 -256 -257 -258 -259 -260 -261 -262 -265 -269 0 
-27 4 219 -222 -229 -234 -235 -238 -241 -244 -256 -257 -258 -259 -260 -261 -262 -265 -269 0 
-102 35 219 -222 -229 -234 -235 -238 -241 -244 -256 -257 -258 -259 -260 -261 -262 -265 -269 0 
-127 3 5 6 30 76 93 -102 35 218 -222 -229 -234 -235 -238 -241 -244 -256 -257 -258 -259 -260 -261 -262 -265 -269 0 
-2 -3 5 6 30 76 93 127 218 -222 -229 -234 -235 -238 -241 -244 -256 -257 -258 -259 -260 -261 -262 -265 -269 0 
-128 -1 218 -222 -229 -234 -235 -238 -241 -244 -256 -257 -258 -259 -260 -261 -262 -265 -269 0 
-128 219 -222 -229 -234 -235 -238 -241 -244 -256 -257 -258 -259 -260 -261 -262 -265 -269 0 
-128 -1 219 -222 -229 -234 -235 -238 -241 -244 -256 -257 -258 -259 -260 -261 -262 -265 -269 0 
-112 13 23 53 62 78 81 96 115 130 134 150 153 154 155 184 206 212 229 -222 -234 -235 -238 -241 -244 -256 -257 -258 -259 -260 -261 -262 -265 -269 0 
-129 11 40 46 54 67 75 79 83 91 118 137 143 144 156 190 208 216 -94 25 99 110 142 252 -222 -229 -234 -235 -238 -241 -244 -256 -257 -258 -259 -260 -261 -262 -265 -269 0 
-129 11 40 46 54 67 75 79 83 91 118 137 143 144 156 190 208 216 229 -222 -234 -235 -238 -241 -244 -256 -257 -258 -259 -260 -261 -262 -265 -269 0 
-113 131 -16 -130 13 23 53 62 78 81 96 112 115 134 150 153 154 155 184 206 212 -94 25 99 110 142 236 -222 -229 -234 -235 -238 -241 -244 -256 -257 -258 -259 -260 -261 -262 -265 -269 0 
-129 11 40 46 54 67 75 79 83 91 118 137 143 144 156 190 208 216 -94 25 99 110 142 -131 113 252 -222 -229 -234 -235 -238 -241 -244 -256 -257 -258 -259 -260 -261 -262 -265 -269 0 
-132 236 -222 -229 -234 -235 -238 -241 -244 -256 -257 -258 -259 -260 -261 -262 -265 -269 0 
-20 164 253 -222 -229 -234 -235 -238 -241 -244 -256 -257 -258 -259 -260 -261 -262 -265 -269 0 
-104 -110 25 94 99 142 218 -222 -229 -234 -235 -238 -241 -244 -256 -257 -258 -259 -260 -261 -262 -265 -269 0 
-18 -14 101 162 -10 8 21 38 39 51 61 68 88 100 109 111 193 210 213 218 -222 -229 -234 -235 -238 -241 -244 -256 -257 -258 -259 -260 -261 -262 -265 -269 0 
-18 -21 8 10 38 39 51 61 68 88 100 109 111 193 210 213 -85 218 -222 -229 -234 -235 -238 -241 -244 -256 -257 -258 -259 -260 -261 -262 -265 -269 0 
-133 123 125 224 -222 -229 -234 -235 -238 -241 -244 -256 -257 -258 -259 -260 -261 -262 -265 -269 0 
-94 25 99 110 142 -41 -20 164 -21 8 10 38 39 51 61 68 88 100 109 111 193 210 213 -134 13 23 53 62 78 81 96 112 115 130 150 153 154 155 184 206 212 254 -222 -229 -234 -235 -238 -241 -244 -256 -257 -258 -259 -260 -261 -262 -265 -269 0 
-135 36 86 89 177 218 -222 -229 -234 -235 -238 -241 -244 -256 -257 -258 -259 -260 -261 -262 -265 -269 0 
-109 8 10 21 38 39 51 61 68 88 100 111 193 210 213 242 -222 -229 -234 -235 -238 -241 -244 -256 -257 -258 -259 -260 -261 -262 -265 -269 0 
-116 218 -222 -229 -234 -235 -238 -241 -244 -256 -257 -258 -259 -260 -261 -262 -265 -269 0 
-18 -44 -136 218 -222 -229 -234 -235 -238 -241 -244 -256 -257 -258 -259 -260 -261 -262 -265 -269 0 
-20 164 -35 102 -137 11 40 46 54 67 75 79 83 91 118 129 143 144 156 190 208 216 218 -222 -229 -234 -235 -238 -241 -244 -256 -257 -258 -259 -260 -261 -262 -265 -269 0 
-138 -35 102 218 -222 -229 -234 -235 -238 -241 -244 -256 -257 -258 -259 -260 -261 -262 -265 -269 0 
-138 218 -222 -229 -234 -235 -238 -241 -244 -256 -257 -258 -259 -260 -261 -262 -265 -269 0 
-20 164 220 0 
-44 -138 218 -222 -229 -234 -235 -238 -241 -244 -256 -257 -258 -259 -260 -261 -262 -265 -269 0 
-94 25 99 110 142 218 -222 -229 -234 -235 -238 -241 -244 -256 -257 -258 -259 -260 -261 -262 -265 -269 0 
-139 65 255 -222 -229 -234 -235 -238 -241 -244 -256 -257 -258 -259 -260 -261 -262 -265 -269 0 
-139 65 218 -222 -229 -234 -235 -238 -241 -244 -256 -257 -258 -259 -260 -261 -262 -265 -269 0 
-18 -140 220 0 
-141 12 43 47 64 87 105 151 152 158 182 -56 49 220 0 
-21 8 10 38 39 51 61 68 88 100 109 111 193 210 213 253 -222 -229 -234 -235 -238 -241 -244 -256 -257 -258 -259 -260 -261 -262 -265 -269 0 
-104 -102 35 -48 42 45 74 108 148 179 185 217 218 -222 -229 -234 -235 -238 -241 -244 -256 -257 -258 -259 -260 -261 -262 -265 -269 0 
-104 253 -222 -229 -234 -235 -238 -241 -244 -256 -257 -258 -259 -260 -261 -262 -265 -269 0 
-9 149 -142 25 94 99 110 220 0 
-49 56 253 -222 -229 -234 -235 -238 -241 -244 -256 -257 -258 -259 -260 -261 -262 -265 -269 0 
-40 11 46 54 67 75 79 83 91 118 129 137 143 144 156 190 208 216 218 -222 -229 -234 -235 -238 -241 -244 -256 -257 -258 -259 -260 -261 -262 -265 -269 0 
-94 25 99 110 142 218 -222 -229 -234 -235 -238 -241 -244 -256 -257 -258 -259 -260 -261 -262 -265 -269 0 
-143 11 40 46 54 67 75 79 83 91 118 129 137 144 156 190 208 216 229 -222 -234 -235 -238 -241 -244 -256 -257 -258 -259 -260 -261 -262 -265 -269 0 
-18 -43 12 47 64 87 105 141 151 152 158 182 -48 42 45 74 108 148 179 185 217 218 -222 -229 -234 -235 -238 -241 -244 -256 -257 -258 -259 -260 -261 -262 -265 -269 0 
-144 11 40 46 54 67 75 79 83 91 118 129 137 143 156 190 208 216 -49 56 -21 8 10 38 39 51 61 68 88 100 109 111 193 210 213 218 -222 -229 -234 -235 -238 -241 -244 -256 -257 -258 -259 -260 -261 -262 -265 -269 0 
-47 12 43 64 87 105 141 151 152 158 182 -21 8 10 38 39 51 61 68 88 100 109 111 193 210 213 220 0 
-145 -94 25 99 110 142 218 -222 -229 -234 -235 -238 -241 -244 -256 -257 -258 -259 -260 -261 -262 -265 -269 0 
-146 -94 25 99 110 142 218 -222 -229 -234 -235 -238 -241 -244 -256 -257 -258 -259 -260 -261 -262 -265 -269 0 
-147 256 -222 -229 -234 -235 -238 -241 -244 -257 -258 -259 -260 -261 -262 -265 -269 0 
-68 8 10 21 38 39 51 61 88 100 109 111 193 210 213 229 -222 -234 -235 -238 -241 -244 -256 -257 -258 -259 -260 -261 -262 -265 -269 0 
-108 42 45 48 74 148 179 185 217 229 -222 -234 -235 -238 -241 -244 -256 -257 -258 -259 -260 -261 -262 -265 -269 0 
-18 -148 42 45 48 74 108 179 185 217 257 -222 -229 -234 -235 -238 -241 -244 -256 -258 -259 -260 -261 -262 -265 -269 0 
-149 9 218 -222 -229 -234 -235 -238 -241 -244 -256 -257 -258 -259 -260 -261 -262 -265 -269 0 
-150 13 23 53 62 78 81 96 112 115 130 134 153 154 155 184 206 212 -113 131 257 -222 -229 -234 -235 -238 -241 -244 -256 -258 -259 -260 -261 -262 -265 -269 0 
-68 8 10 21 38 39 51 61 88 100 109 111 193 210 213 -151 12 43 47 64 87 105 141 152 158 182 218 -222 -229 -234 -235 -238 -241 -244 -256 -257 -258 -259 -260 -261 -262 -265 -269 0 
-152 12 43 47 64 87 105 141 151 158 182 258 -222 -229 -234 -235 -238 -241 -244 -256 -257 -259 -260 -261 -262 -265 -269 0 
-153 13 23 53 62 78 81 96 112 115 130 134 150 154 155 184 206 212 229 -222 -234 -235 -238 -241 -244 -256 -257 -258 -259 -260 -261 -262 -265 -269 0 
-154 13 23 53 62 78 81 96 112 115 130 134 150 153 155 184 206 212 259 -222 -229 -234 -235 -238 -241 -244 -256 -257 -258 -260 -261 -262 -265 -269 0 
-155 13 23 53 62 78 81 96 112 115 130 134 150 153 154 184 206 212 234 -222 -229 -235 -238 -241 -244 -256 -257 -258 -259 -260 -261 -262 -265 -269 0 
-156 11 40 46 54 67 75 79 83 91 118 129 137 143 144 190 208 216 -157 257 -222 -229 -234 -235 -238 -241 -244 -256 -258 -259 -260 -261 -262 -265 -269 0 
-158 12 43 47 64 87 105 141 151 152 182 260 -222 -229 -234 -235 -238 -241 -244 -256 -257 -258 -259 -261 -262 -265 -269 0 
-159 160 161 261 -222 -229 -234 -235 -238 -241 -244 -256 -257 -258 -259 -260 -262 -265 -269 0 
-160 159 161 262 -222 -229 -234 -235 -238 -241 -244 -256 -257 -258 -259 -260 -261 -265 -269 0 
-161 159 160 261 -222 -229 -234 -235 -238 -241 -244 -256 -257 -258 -259 -260 -262 -265 -269 0 
-162 14 101 218 -222 -229 -234 -235 -238 -241 -244 -256 -257 -258 -259 -260 -261 -262 -265 -269 0 
-163 77 218 -222 -229 -234 -235 -238 -241 -244 -256 -257 -258 -259 -260 -261 -262 -265 -269 0 
-128 218 -222 -229 -234 -235 -238 -241 -244 -256 -257 -258 -259 -260 -261 -262 -265 -269 0 
-164 20 219 -222 -229 -234 -235 -238 -241 -244 -256 -257 -258 -259 -260 -261 -262 -265 -269 0 
-164 20 -165 263 0 
-31 167 264 0 
-121 -166 -31 167 244 -222 -229 -234 -235 -238 -241 -256 -257 -258 -259 -260 -261 -262 -265 -269 0 
-31 167 229 -222 -234 -235 -238 -241 -244 -256 -257 -258 -259 -260 -261 -262 -265 -269 0 
-167 31 -31 167 265 -222 -229 -234 -235 -238 -241 -244 -256 -257 -258 -259 -260 -261 -262 -269 0 
-104 -168 19 95 176 189 222 -229 -234 -235 -238 -241 -244 -256 -257 -258 -259 -260 -261 -262 -265 -269 0 
-28 219 -222 -229 -234 -235 -238 -241 -244 -256 -257 -258 -259 -260 -261 -262 -265 -269 0 
-7 -27 4 218 -222 -229 -234 -235 -238 -241 -244 -256 -257 -258 -259 -260 -261 -262 -265 -269 0 
-128 -169 218 -222 -229 -234 -235 -238 -241 -244 -256 -257 -258 -259 -260 -261 -262 -265 -269 0 
-4 27 -76 3 5 6 30 93 127 218 -222 -229 -234 -235 -238 -241 -244 -256 -257 -258 -259 -260 -261 -262 -265 -269 0 
-4 27 -5 3 6 30 76 93 127 218 -222 -229 -234 -235 -238 -241 -244 -256 -257 -258 -259 -260 -261 -262 -265 -269 0 
-29 -169 218 -222 -229 -234 -235 -238 -241 -244 -256 -257 -258 -259 -260 -261 -262 -265 -269 0 
-2 -93 3 5 6 30 76 127 -1 218 -222 -229 -234 -235 -238 -241 -244 -256 -257 -258 -259 -260 -261 -262 -265 -269 0 
-27 4 -1 219 -222 -229 -234 -235 -238 -241 -244 -256 -257 -258 -259 -260 -261 -262 -265 -269 0 
-29 219 -222 -229 -234 -235 -238 -241 -244 -256 -257 -258 -259 -260 -261 -262 -265 -269 0 
-5 3 6 30 76 93 127 219 -222 -229 -234 -235 -238 -241 -244 -256 -257 -258 -259 -260 -261 -262 -265 -269 0 
-93 3 5 6 30 76 127 -1 219 -222 -229 -234 -235 -238 -241 -244 -256 -257 -258 -259 -260 -261 -262 -265 -269 0 
-7 -27 4 -1 218 -222 -229 -234 -235 -238 -241 -244 -256 -257 -258 -259 -260 -261 -262 -265 -269 0 
-76 3 5 6 30 93 127 219 -222 -229 -234 -235 -238 -241 -244 -256 -257 -258 -259 -260 -261 -262 -265 -269 0 
-4 27 -6 3 5 30 76 93 127 218 -222 -229 -234 -235 -238 -241 -244 -256 -257 -258 -259 -260 -261 -262 -265 -269 0 
-7 -3 5 6 30 76 93 127 218 -222 -229 -234 -235 -238 -241 -244 -256 -257 -258 -259 -260 -261 -262 -265 -269 0 
-7 -31 167 219 -222 -229 -234 -235 -238 -241 -244 -256 -257 -258 -259 -260 -261 -262 -265 -269 0 
-18 -20 164 -31 167 218 -222 -229 -234 -235 -238 -241 -244 -256 -257 -258 -259 -260 -261 -262 -265 -269 0 
-7 -5 3 6 30 76 93 127 218 -222 -229 -234 -235 -238 -241 -244 -256 -257 -258 -259 -260 -261 -262 -265 -269 0 
-121 -31 167 244 -222 -229 -234 -235 -238 -241 -256 -257 -258 -259 -260 -261 -262 -265 -269 0 
-7 -3 5 6 30 76 93 127 219 -222 -229 -234 -235 -238 -241 -244 -256 -257 -258 -259 -260 -261 -262 -265 -269 0 
-2 -5 3 6 30 76 93 127 219 -222 -229 -234 -235 -238 -241 -244 -256 -257 -258 -259 -260 -261 -262 -265 -269 0 
-170 126 -1 218 -222 -229 -234 -235 -238 -241 -244 -256 -257 -258 -259 -260 -261 -262 -265 -269 0 
-21 8 10 38 39 51 61 68 88 100 109 111 193 210 213 -171 220 0 
-49 56 -104 220 0 
-23 13 53 62 78 81 96 112 115 130 134 150 153 154 155 184 206 212 -21 8 10 38 39 51 61 68 88 100 109 111 193 210 213 218 -222 -229 -234 -235 -238 -241 -244 -256 -257 -258 -259 -260 -261 -262 -265 -269 0 
-172 -73 84 97 114 183 191 225 -222 -229 -234 -235 -238 -241 -244 -256 -257 -258 -259 -260 -261 -262 -265 -269 0 
-173 229 -222 -234 -235 -238 -241 -244 -256 -257 -258 -259 -260 -261 -262 -265 -269 0 
-174 199 203 204 205 222 -229 -234 -235 -238 -241 -244 -256 -257 -258 -259 -260 -261 -262 -265 -269 0 
-175 55 106 186 218 -222 -229 -234 -235 -238 -241 -244 -256 -257 -258 -259 -260 -261 -262 -265 -269 0 
-16 218 -222 -229 -234 -235 -238 -241 -244 -256 -257 -258 -259 -260 -261 -262 -265 -269 0 
-176 19 95 168 189 222 -229 -234 -235 -238 -241 -244 -256 -257 -258 -259 -260 -261 -262 -265 -269 0 
-16 222 -229 -234 -235 -238 -241 -244 -256 -257 -258 -259 -260 -261 -262 -265 -269 0 
-177 36 86 89 135 222 -229 -234 -235 -238 -241 -244 -256 -257 -258 -259 -260 -261 -262 -265 -269 0 
-178 218 -222 -229 -234 -235 -238 -241 -244 -256 -257 -258 -259 -260 -261 -262 -265 -269 0 
-179 42 45 48 74 108 148 185 217 222 -229 -234 -235 -238 -241 -244 -256 -257 -258 -259 -260 -261 -262 -265 -269 0 
-168 19 95 176 189 222 -229 -234 -235 -238 -241 -244 -256 -257 -258 -259 -260 -261 -262 -265 -269 0 
-136 218 -222 -229 -234 -235 -238 -241 -244 -256 -257 -258 -259 -260 -261 -262 -265 -269 0 
-112 13 23 53 62 78 81 96 115 130 134 150 153 154 155 184 206 212 218 -222 -229 -234 -235 -238 -241 -244 -256 -257 -258 -259 -260 -261 -262 -265 -269 0 
-180 229 -222 -234 -235 -238 -241 -244 -256 -257 -258 -259 -260 -261 -262 -265 -269 0 
-181 257 -222 -229 -234 -235 -238 -241 -244 -256 -258 -259 -260 -261 -262 -265 -269 0 
-150 13 23 53 62 78 81 96 112 115 130 134 153 154 155 184 206 212 -182 12 43 47 64 87 105 141 151 152 158 257 -222 -229 -234 -235 -238 -241 -244 -256 -258 -259 -260 -261 -262 -265 -269 0 
-183 73 84 97 114 191 236 -222 -229 -234 -235 -238 -241 -244 -256 -257 -258 -259 -260 -261 -262 -265 -269 0 
-184 13 23 53 62 78 81 96 112 115 130 134 150 153 154 155 206 212 257 -222 -229 -234 -235 -238 -241 -244 -256 -258 -259 -260 -261 -262 -265 -269 0 
-85 218 -222 -229 -234 -235 -238 -241 -244 -256 -257 -258 -259 -260 -261 -262 -265 -269 0 
-20 164 -56 49 -104 218 -222 -229 -234 -235 -238 -241 -244 -256 -257 -258 -259 -260 -261 -262 -265 -269 0 
-185 42 45 48 74 108 148 179 217 -35 102 -99 25 94 110 142 -15 197 218 -222 -229 -234 -235 -238 -241 -244 -256 -257 -258 -259 -260 -261 -262 -265 -269 0 
-186 55 106 175 223 -222 -229 -234 -235 -238 -241 -244 -256 -257 -258 -259 -260 -261 -262 -265 -269 0 
-131 113 -97 73 84 114 183 191 236 -222 -229 -234 -235 -238 -241 -244 -256 -257 -258 -259 -260 -261 -262 -265 -269 0 
-4 27 -43 12 47 64 87 105 141 151 152 158 182 -48 42 45 74 108 148 179 185 217 218 -222 -229 -234 -235 -238 -241 -244 -256 -257 -258 -259 -260 -261 -262 -265 -269 0 
-107 120 124 -21 8 10 38 39 51 61 68 88 100 109 111 193 210 213 224 -222 -229 -234 -235 -238 -241 -244 -256 -257 -258 -259 -260 -261 -262 -265 -269 0 
-107 120 124 -106 55 175 186 240 -222 -229 -234 -235 -238 -241 -244 -256 -257 -258 -259 -260 -261 -262 -265 -269 0 
-55 106 175 186 -21 8 10 38 39 51 61 68 88 100 109 111 193 210 213 220 0 
-4 27 -65 139 -187 218 -222 -229 -234 -235 -238 -241 -244 -256 -257 -258 -259 -260 -261 -262 -265 -269 0 
-144 11 40 46 54 67 75 79 83 91 118 129 137 143 156 190 208 216 -102 35 -21 8 10 38 39 51 61 68 88 100 109 111 193 210 213 218 -222 -229 -234 -235 -238 -241 -244 -256 -257 -258 -259 -260 -261 -262 -265 -269 0 
-97 73 84 114 183 191 -129 11 40 46 54 67 75 79 83 91 118 137 143 144 156 190 208 216 236 -222 -229 -234 -235 -238 -241 -244 -256 -257 -258 -259 -260 -261 -262 -265 -269 0 
-188 98 224 -222 -229 -234 -235 -238 -241 -244 -256 -257 -258 -259 -260 -261 -262 -265 -269 0 
-23 13 53 62 78 81 96 112 115 130 134 150 153 154 155 184 206 212 218 -222 -229 -234 -235 -238 -241 -244 -256 -257 -258 -259 -260 -261 -262 -265 -269 0 
-65 139 -102 35 -51 8 10 21 38 39 61 68 88 100 109 111 193 210 213 218 -222 -229 -234 -235 -238 -241 -244 -256 -257 -258 -259 -260 -261 -262 -265 -269 0 
-104 -21 8 10 38 39 51 61 68 88 100 109 111 193 210 213 218 -222 -229 -234 -235 -238 -241 -244 -256 -257 -258 -259 -260 -261 -262 -265 -269 0 
-49 56 -21 8 10 38 39 51 61 68 88 100 109 111 193 210 213 218 -222 -229 -234 -235 -238 -241 -244 -256 -257 -258 -259 -260 -261 -262 -265 -269 0 
-20 164 -50 220 0 
-189 19 95 168 176 -190 11 40 46 54 67 75 79 83 91 118 129 137 143 144 156 208 216 229 -222 -234 -235 -238 -241 -244 -256 -257 -258 -259 -260 -261 -262 -265 -269 0 
-191 73 84 97 114 183 236 -222 -229 -234 -235 -238 -241 -244 -256 -257 -258 -259 -260 -261 -262 -265 -269 0 
-18 220 0 
-65 139 220 0 
-192 117 -193 8 10 21 38 39 51 61 68 88 100 109 111 210 213 242 -222 -229 -234 -235 -238 -241 -244 -256 -257 -258 -259 -260 -261 -262 -265 -269 0 
-194 235 -222 -229 -234 -238 -241 -244 -256 -257 -258 -259 -260 -261 -262 -265 -269 0 
-127 3 5 6 30 76 93 -27 4 219 -222 -229 -234 -235 -238 -241 -244 -256 -257 -258 -259 -260 -261 -262 -265 -269 0 
-128 -195 219 -222 -229 -234 -235 -238 -241 -244 -256 -257 -258 -259 -260 -261 -262 -265 -269 0 
-1 -29 219 -222 -229 -234 -235 -238 -241 -244 -256 -257 -258 -259 -260 -261 -262 -265 -269 0 
-196 218 -222 -229 -234 -235 -238 -241 -244 -256 -257 -258 -259 -260 -261 -262 -265 -269 0 
-197 15 218 -222 -229 -234 -235 -238 -241 -244 -256 -257 -258 -259 -260 -261 -262 -265 -269 0 
-99 25 94 110 142 -14 101 162 220 0 
-198 -58 -199 174 203 204 205 218 -222 -229 -234 -235 -238 -241 -244 -256 -257 -258 -259 -260 -261 -262 -265 -269 0 
-198 -200 -201 218 -222 -229 -234 -235 -238 -241 -244 -256 -257 -258 -259 -260 -261 -262 -265 -269 0 
-7 -18 -31 167 218 -222 -229 -234 -235 -238 -241 -244 -256 -257 -258 -259 -260 -261 -262 -265 -269 0 
-24 -6 3 5 30 76 93 127 218 -222 -229 -234 -235 -238 -241 -244 -256 -257 -258 -259 -260 -261 -262 -265 -269 0 
-4 27 -202 266 -222 -229 -234 -235 -238 -241 -244 -256 -257 -258 -259 -260 -261 -262 -265 -269 0 
-1 -102 35 219 -222 -229 -234 -235 -238 -241 -244 -256 -257 -258 -259 -260 -261 -262 -265 -269 0 
-6 3 5 30 76 93 127 218 -222 -229 -234 -235 -238 -241 -244 -256 -257 -258 -259 -260 -261 -262 -265 -269 0 
-35 102 -6 3 5 30 76 93 127 219 -222 -229 -234 -235 -238 -241 -244 -256 -257 -258 -259 -260 -261 -262 -265 -269 0 
-203 174 199 204 205 218 -222 -229 -234 -235 -238 -241 -244 -256 -257 -258 -259 -260 -261 -262 -265 -269 0 
-204 174 199 203 205 229 -222 -234 -235 -238 -241 -244 -256 -257 -258 -259 -260 -261 -262 -265 -269 0 
-68 8 10 21 38 39 51 61 88 100 109 111 193 210 213 -25 94 99 110 142 223 -222 -229 -234 -235 -238 -241 -244 -256 -257 -258 -259 -260 -261 -262 -265 -269 0 
-25 94 99 110 142 -205 174 199 203 204 223 -222 -229 -234 -235 -238 -241 -244 -256 -257 -258 -259 -260 -261 -262 -265 -269 0 
-206 13 23 53 62 78 81 96 112 115 130 134 150 153 154 155 184 212 218 -222 -229 -234 -235 -238 -241 -244 -256 -257 -258 -259 -260 -261 -262 -265 -269 0 
-18 -151 12 43 47 64 87 105 141 152 158 182 229 -222 -234 -235 -238 -241 -244 -256 -257 -258 -259 -260 -261 -262 -265 -269 0 
-56 49 218 -222 -229 -234 -235 -238 -241 -244 -256 -257 -258 -259 -260 -261 -262 -265 -269 0 
-4 27 220 0 
-56 49 218 -222 -229 -234 -235 -238 -241 -244 -256 -257 -258 -259 -260 -261 -262 -265 -269 0 
-207 -139 65 267 0 
-94 25 99 110 142 -134 13 23 53 62 78 81 96 112 115 130 150 153 154 155 184 206 212 -47 12 43 64 87 105 141 151 152 158 182 -16 -208 11 40 46 54 67 75 79 83 91 118 129 137 143 144 156 190 216 254 -222 -229 -234 -235 -238 -241 -244 -256 -257 -258 -259 -260 -261 -262 -265 -269 0 
-65 139 -104 -187 218 -222 -229 -234 -235 -238 -241 -244 -256 -257 -258 -259 -260 -261 -262 -265 -269 0 
-51 8 10 21 38 39 61 68 88 100 109 111 193 210 213 -14 101 162 218 -222 -229 -234 -235 -238 -241 -244 -256 -257 -258 -259 -260 -261 -262 -265 -269 0 
-51 8 10 21 38 39 61 68 88 100 109 111 193 210 213 -135 36 86 89 177 218 -222 -229 -234 -235 -238 -241 -244 -256 -257 -258 -259 -260 -261 -262 -265 -269 0 
-209 239 -222 -229 -234 -235 -238 -241 -244 -256 -257 -258 -259 -260 -261 -262 -265 -269 0 
-23 13 53 62 78 81 96 112 115 130 134 150 153 154 155 184 206 212 -192 117 -210 8 10 21 38 39 51 61 68 88 100 109 111 193 213 242 -222 -229 -234 -235 -238 -241 -244 -256 -257 -258 -259 -260 -261 -262 -265 -269 0 
-46 11 40 54 67 75 79 83 91 118 129 137 143 144 156 190 208 216 -99 25 94 110 142 220 0 
-18 -211 268 -222 -229 -234 -235 -238 -241 -244 -256 -257 -258 -259 -260 -261 -262 -265 -269 0 
-18 -212 13 23 53 62 78 81 96 112 115 130 134 150 153 154 155 184 206 -209 239 -222 -229 -234 -235 -238 -241 -244 -256 -257 -258 -259 -260 -261 -262 -265 -269 0 
-213 8 10 21 38 39 51 61 68 88 100 109 111 193 210 242 -222 -229 -234 -235 -238 -241 -244 -256 -257 -258 -259 -260 -261 -262 -265 -269 0 
-20 164 -63 218 -222 -229 -234 -235 -238 -241 -244 -256 -257 -258 -259 -260 -261 -262 -265 -269 0 
-214 -142 25 94 99 110 218 -222 -229 -234 -235 -238 -241 -244 -256 -257 -258 -259 -260 -261 -262 -265 -269 0 
-215 218 -222 -229 -234 -235 -238 -241 -244 -256 -257 -258 -259 -260 -261 -262 -265 -269 0 
-214 -104 218 -222 -229 -234 -235 -238 -241 -244 -256 -257 -258 -259 -260 -261 -262 -265 -269 0 
-216 11 40 46 54 67 75 79 83 91 118 129 137 143 144 156 190 208 220 0 
-118 11 40 46 54 67 75 79 83 91 129 137 143 144 156 190 208 216 218 -222 -229 -234 -235 -238 -241 -244 -256 -257 -258 -259 -260 -261 -262 -265 -269 0 
-214 -104 218 -222 -229 -234 -235 -238 -241 -244 -256 -257 -258 -259 -260 -261 -262 -265 -269 0 
-115 13 23 53 62 78 81 96 112 130 134 150 153 154 155 184 206 212 220 0 
-152 12 43 47 64 87 105 141 151 158 182 -217 42 45 48 74 108 148 179 185 269 -222 -229 -234 -235 -238 -241 -244 -256 -257 -258 -259 -260 -261 -262 -265 0 
-127 3 5 6 30 76 93 -27 4 218 -222 -229 -234 -235 -238 -241 -244 -256 -257 -258 -259 -260 -261 -262 -265 -269 0 
-24 -76 3 5 6 30 93 127 218 -222 -229 -234 -235 -238 -241 -244 -256 -257 -258 -259 -260 -261 -262 -265 -269 0 
-24 -93 3 5 6 30 76 127 218 -222 -229 -234 -235 -238 -241 -244 -256 -257 -258 -259 -260 -261 -262 -265 -269 0 
-2 -27 4 218 -222 -229 -234 -235 -238 -241 -244 -256 -257 -258 -259 -260 -261 -262 -265 -269 0 
-4 27 -3 5 6 30 76 93 127 218 -222 -229 -234 -235 -238 -241 -244 -256 -257 -258 -259 -260 -261 -262 -265 -269 0 
-7 -6 3 5 30 76 93 127 218 -222 -229 -234 -235 -238 -241 -244 -256 -257 -258 -259 -260 -261 -262 -265 -269 0 
-3 5 6 30 76 93 127 218 -222 -229 -234 -235 -238 -241 -244 -256 -257 -258 -259 -260 -261 -262 -265 -269 0 
-93 3 5 6 30 76 127 219 -222 -229 -234 -235 -238 -241 -244 -256 -257 -258 -259 -260 -261 -262 -265 -269 0 
-93 3 5 6 30 76 127 218 -222 -229 -234 -235 -238 -241 -244 -256 -257 -258 -259 -260 -261 -262 -265 -269 0 
-76 3 5 6 30 93 127 218 -222 -229 -234 -235 -238 -241 -244 -256 -257 -258 -259 -260 -261 -262 -265 -269 0 
-1 -31 167 219 -222 -229 -234 -235 -238 -241 -244 -256 -257 -258 -259 -260 -261 -262 -265 -269 0 
-7 -1 -31 167 218 -222 -229 -234 -235 -238 -241 -244 -256 -257 -258 -259 -260 -261 -262 -265 -269 0 
-3 5 6 30 76 93 127 -165 263 0 
-20 164 -3 5 6 30 76 93 127 218 -222 -229 -234 -235 -238 -241 -244 -256 -257 -258 -259 -260 -261 -262 -265 -269 0 
-18 -93 3 5 6 30 76 127 218 -222 -229 -234 -235 -238 -241 -244 -256 -257 -258 -259 -260 -261 -262 -265 -269 0 
-24 -27 4 218 -222 -229 -234 -235 -238 -241 -244 -256 -257 -258 -259 -260 -261 -262 -265 -269 0 
-5 3 6 30 76 93 127 218 -222 -229 -234 -235 -238 -241 -244 -256 -257 -258 -259 -260 -261 -262 -265 -269 0 
-77 -205 212 0 
-13 42 -195 0 
13 82 101 0 
52 -208 -242 0 
92 125 143 0 
-16 -84 86 0 
114 -142 -192 0 
92 -108 143 0 
-70 189 -218 0 
-97 -138 -265 0 
-11 -19 -72 0 
-142 -206 -212 0 
26 -31 66 0 
21 60 -192 0 
-161 -253 260 0 
40 -97 108 0 
-50 -98 141 0 
-110 183 -194 0 
22 135 -190 0 
47 89 -240 0 
-45 238 -260 0 
145 -168 -216 0 
104 -121 199 0 
23 123 218 0 
-43 134 205 0 
88 159 185 0 
7 27 -137 0 
114 -154 176 0 
-168 -250 -269 0 
-75 -154 159 0 
82 -138 191 0 
44 90 -209 0 
-19 50 -164 0 
-68 -78 100 0 
68 87 158 0 
85 133 -136 0 
-28 -122 -150 0 
-49 -178 -249 0 
69 -166 250 0 
28 -129 130 0 
-22 24 -196 0 
-114 126 -219 0 
6 86 133 0 
-127 -165 -224 0 
70 94 -216 0 
31 54 102 0 
-110 214 262 0 
-78 -196 -269 0 
12 -49 112 0 
-48 -112 147 0 
-152 -213 -219 0 
-47 92 168 0 
46 -238 267 0 
-68 140 -203 0 
-1 -148 -232 0 
13 -50 267 0 
10 83 188 0 
-146 174 -234 0 
-71 148 -205 0 
-27 164 -215 0 
3 -9 -37 0 
11 -156 -265 0 
69 90 200 0 
81 -141 244 0 
18 234 267 0 
-72 176 239 0 
-29 -40 177 0 
220 -239 -243 0 
-103 -201 -218 0 
144 146 -227 0 
-96 150 244 0 
39 -226 -244 0 
17 132 -227 0 
-70 -95 233 0 
91 -114 -208 0 
30 190 -199 0 
-94 104 -209 0 
97 -105 197 0 
-56 -60 -261 0 
-3 -114 164 0 
67 97 165 0 
71 137 137 0 
-6 -77 109 0 
-5 41 -53 0 
63 -87 -165 0 
-25 35 159 0 
7 84 175 0 
-14 -65 -215 0 
-36 78 255 0 
-70 -122 227 0 
89 -96 255 0 
-23 -129 -260 0 
81 -229 229 0 
18 101 188 0 
-2 -116 212 0 
34 122 -262 0 
-2 -33 -111 0 
70 -73 153 0 
65 99 126 0 
76 110 -174 0 
87 -167 -167 0 
120 242 -259 0 
28 145 238 0 
24 232 -242 0 
-127 224 -244 0 
-93 -241 -254 0 
56 -90 -234 0 
-127 -167 -220 0 
-26 -102 139 0 
-11 100 -217 0 
-45 61 -228 0 
9 -73 -103 0 
58 -203 261 0 
-1 40 -245 0 
-55 164 -203 0 
114 -135 -186 0 
98 208 -211 0 
57 122 -262 0 
54 -187 223 0 
-196 209 212 0 
-62 198 211 0 
-207 -216 -265 0 
116 -120 249 0 
-134 178 209 0 
98 -108 168 0 
130 176 -213 0 
-140 -165 -185 0 
5 -59 -233 0 
-14 87 -221 0 
138 -149 253 0 
-117 187 -254 0 
-15 16 139 0 
-5 -137 225 0 
-84 -177 189 0 
151 -190 -245 0 
-143 -162 180 0 
18 -83 -91 0 
-29 -211 228 0 
-65 73 -123 0 
-66 -199 225 0 
-87 143 197 0 
15 -158 -222 0 
-28 -95 -108 0 
-59 206 -245 0 
-86 126 170 0 
-5 198 246 0 
94 -165 232 0 
-67 78 -216 0 
-141 173 -248 0 
-22 154 269 0 
88 -168 -266 0 
-1 -60 95 0 
-188 226 260 0 
-82 -120 -256 0 
98 -157 -254 0 
-40 228 -268 0 
32 -181 -206 0 
51 -95 207 0 
12 -111 115 0 
-21 -149 -263 0 
-28 158 218 0 
-127 -263 267 0 
-225 -252 253 0 
-17 42 116 0 
-46 145 -215 0 
37 -223 -258 0 
-63 129 132 0 
-79 -233 -252 0 
-164 210 265 0 
39 -49 214 0 
19 -162 -189 0 
155 172 226 0 
80 94 -206 0 
10 -181 -260 0 
3 -95 153 0 
-12 163 -225 0 
-175 196 213 0 
-46 -162 -166 0 
142 -147 190 0 
-6 111 -225 0 
-53 -122 215 0 
74 165 -241 0 
-21 -47 88 0 
72 -92 183 0 
77 -83 -173 0 
76 -82 265 0 
3 -116 -157 0 
19 -83 -168 0 
-35 -145 -230 0 
45 -49 -72 0 
56 102 248 0 
74 -79 -101 0 
14 55 71 0 
-131 -131 169 0 
9 30 -32 0 
-38 -83 -103 0 
-147 186 205 0 
75 177 228 0 
67 -159 213 0 
60 241 263 0 
-165 -222 -267 0 
92 183 -252 0 
8 194 250 0 
26 -59 -235 0 
38 -231 -262 0 
17 111 -206 0 
-4 78 -269 0 
-79 169 244 0 
12 56 -160 0 
56 -149 215 0 
-72 -74 141 0 
66 -140 -145 0 
-12 -43 169 0 
-20 -27 136 0 
-151 -181 -258 0 
-71 116 200 0 
117 131 153 0 
87 130 -204 0 
45 -74 -132 0 
173 -202 -218 0 
106 117 230 0 
-14 -85 222 0 
47 80 -214 0 
-95 160 215 0 
-26 109 113 0 
-53 170 215 0 
-65 -89 -258 0 
12 -49 -209 0 
15 -48 250 0 
38 -131 -221 0 
-55 111 -167 0 
106 -233 -268 0 
128 175 -230 0 
47 50 227 0 
-101 151 -227 0 
6 133 201 0 
-189 196 206 0 
261 261 264 0 
-22 199 204 0 
104 115 168 0 
-41 102 -145 0 
10 -58 -229 0 
73 -82 -223 0 
-74 -240 248 0 
-86 -92 269 0 
45 -54 265 0 
12 78 -266 0 
-32 -130 183 0 
-76 -137 -253 0 
62 221 -251 0 
99 179 249 0 
-28 92 203 0 
21 -25 -163 0 
34 36 -231 0 
83 -131 176 0 
-38 44 143 0 
2 209 243 0 
36 -122 210 0 
-12 -190 247 0 
32 -77 -142 0 
-59 115 -198 0 
-114 260 261 0 
85 93 -102 0 
-21 107 109 0 
-84 -186 -244 0 
-178 217 231 0 
-12 -80 -120 0 
72 -72 141 0 
6 -38 -79 0 
